(declare-const X String)
; User-Agent\x3AHost\x3a\x22The
(assert (not (str.in_re X (str.to_re "User-Agent:Host:\u{22}The\u{a}"))))
; PASSW=\s+\x2Fta\x2FNEWS\x2F.*loomcompany\x2Ecom
(assert (not (str.in_re X (re.++ (str.to_re "PASSW=") (re.+ (re.union (str.to_re " ") (str.to_re "\u{9}") (str.to_re "\u{a}") (str.to_re "\u{c}") (str.to_re "\u{d}"))) (str.to_re "/ta/NEWS/") (re.* re.allchar) (str.to_re "loomcompany.com\u{a}")))))
; Google\s+jupitersatellites\x2Ebiz\s+Eyewww\x2Eccnnlc\x2Ecom
(assert (not (str.in_re X (re.++ (str.to_re "Google") (re.+ (re.union (str.to_re " ") (str.to_re "\u{9}") (str.to_re "\u{a}") (str.to_re "\u{c}") (str.to_re "\u{d}"))) (str.to_re "jupitersatellites.biz") (re.+ (re.union (str.to_re " ") (str.to_re "\u{9}") (str.to_re "\u{a}") (str.to_re "\u{c}") (str.to_re "\u{d}"))) (str.to_re "Eyewww.ccnnlc.com\u{13}\u{a}")))))
; Desktop.*Hello\x2E.*Referer\x3AToolbar
(assert (str.in_re X (re.++ (str.to_re "Desktop") (re.* re.allchar) (str.to_re "Hello.") (re.* re.allchar) (str.to_re "Referer:Toolbar\u{a}"))))
(check-sat)

(exit)
